POSCAR                                  
   1.00000000000000     
     7.8105998038999997    0.0000000000000000    0.0000000000000000
     0.0000000000000000    7.8105998038999997    0.0000000000000000
     0.0000000000000000    0.0000000000000000   29.5737991332999997
   Sr   Ti   O    C    H 
    20    20    60     1     3
Direct
  0.2467174233011102  0.2475496033140028  0.0556946941132453
  0.2458400021501815  0.7482676520813734  0.0557388395521044
  0.7459723498214129  0.2482208161378581  0.0557252888858622
  0.7468342046342968  0.7476241946581467  0.0557108601507216
  0.2464682387277668  0.2471432438230119  0.1940437439659617
  0.2457172816459431  0.7478635399669012  0.1940613553375760
  0.7457976174825199  0.2477132864045519  0.1940748127036705
  0.7466536319013164  0.7471658888603294  0.1940564842894374
  0.2477275562463374  0.2487277506938946  0.3287195611720147
  0.2479697754330729  0.7486714330695317  0.3287557821885490
  0.7481046332708416  0.2485490261020918  0.3287933207938259
  0.7478966491041728  0.7488182591366909  0.3287731905412841
  0.2499134955855517  0.2500191318032595  0.4620616490246424
  0.2491523417310101  0.7504960016841068  0.4619695245610927
  0.7495396308626573  0.2505098161480097  0.4621016959659636
  0.7499888209925195  0.7503194472695435  0.4620873391083815
  0.2525149101012421  0.2525543345360591  0.5926544848866673
  0.2526170157884479  0.7507126649997039  0.5921487477171307
  0.7510021019994134  0.2520569991831502  0.5926149387418675
  0.7503908493714713  0.7511397030231840  0.5922676655646502
 -0.0078672547117296 -0.0047055643877988  0.1283469795312895
 -0.0059483103275725  0.4934146737221186  0.1283149716934448
  0.4940955782714828 -0.0066210481876469  0.1283063441755118
  0.4921725615911043  0.4952610354423664  0.1282898887832812
 -0.0043008960391996 -0.0040255706209611  0.2622746343536340
 -0.0052812772316629  0.4967673667347634  0.2621669799509394
  0.4948278431423643 -0.0033003422254298  0.2621397556236410
  0.4956471187825932  0.4959256199588554  0.2621066222306418
 -0.0021499626261650  0.9987809650773813  0.3968627238653080
 -0.0016021726546431  0.4982659668835528  0.3967181227943719
  0.4984355310962104 -0.0017232777397423  0.3966775870683253
  0.4977583574577801  0.4986266095491170  0.3964723905823649
  0.0008527538042173  0.0014054568003405  0.5330483737795355
  0.0007179007067646  0.5008730948552544  0.5327673989992657
  0.5007347327900863  0.0010302372001011  0.5326756070026945
  0.5008655417684711  0.5012480110896437  0.5322809190767958
  0.9934786882746687  0.9952679134648625  0.9968906636045992
  0.9936235827227062  0.4947780686299823  0.9968912476584392
  0.4936299001338492  0.9947016846274864  0.9968988277274947
  0.4935020019174751  0.4952536363790155  0.9969423205398329
  0.0015578187306359  0.0045416237930816  0.0598405960128819
  0.0022448050765117  0.5017797315819573  0.0598725330470327
  0.5021975041764348  0.0018120556927772  0.0598813266359439
  0.5014648535101903  0.5045793072829410  0.0599120196806421
  0.0307145809172235  0.2540998847689106  0.1274513040388188
 -0.0248477714214617  0.7541657098655341  0.1269102986514507
  0.2529386270505754 -0.0235497809017479  0.1272121463901053
  0.2527877843425895  0.5320424079909802  0.1272544992707629
  0.4751142573852612  0.2542997249717221  0.1269506653520102
  0.5307035663950328  0.7540802644050232  0.1275407805196378
  0.7526658381452196  0.0320669623776876  0.1271934776443947
  0.7528788942891846  0.4764558207383448  0.1272589644212578
  0.0017331703301049  0.0017310805288130  0.1943309984423551
  0.0013623667995512  0.5038856915736025  0.1943778163580743
  0.5012390943521626  0.0042640345884961  0.1943888914252262
  0.5017427111281257  0.5014982914455615  0.1943972981695085
 -0.0240945835359194  0.2529835769887562  0.2612412579116420
  0.0274311734634218  0.7529750534268206  0.2619938570756319
  0.2517858386792680  0.0286312222423246  0.2617928617778449
  0.2518435813264334  0.4770240468613636  0.2615686084413492
  0.5275489402548191  0.2530289456916881  0.2621687264787753
  0.4758754743025355  0.7529781416853831  0.2611892444179997
  0.7517636813660215 -0.0229055125466945  0.2614812956822276
  0.7517748907968530  0.5287168882085094  0.2617959305006418
  0.0005734083314664  0.0040185367770977  0.3287389283843826
  0.0017220930875828  0.5007442877175136  0.3287687379550789
  0.5019080696508551  0.0002350175472923  0.3287872092767508
  0.5008098868210391  0.5045769956582573  0.3288110647262080
  0.0254972929534963  0.2525108211750570  0.3964730261841270
  0.9772339099075189  0.7525135916173941  0.3955960634915399
  0.2512758350923844  0.9784795942418482  0.3958364075914520
  0.2513055137503616  0.5267914759986828  0.3961824075545572
  0.4770697541036443  0.2526097135298281  0.3954208042022538
  0.5254160807171522  0.7525361023045953  0.3966968684558322
  0.7512602494142445  0.0267554711178551  0.3962362114041768
  0.7512436749672390  0.4784381444363420  0.3959211682762893
  0.0016781442677804  0.0005428577700151  0.4631504354430286
  0.0005427206065621  0.5036260495259969  0.4631370387329894
  0.5001447724943279  0.0048090367959722  0.4631466737446557
  0.5012329400223862  0.4996163348021094  0.4631284256839563
  0.9735185986296997  0.2516580865424575  0.5307316228534265
  0.0266844773785335  0.7517966645205088  0.5315666663807236
  0.2503068672328946  0.0283188857927950  0.5313860254634624
  0.2501867726787369  0.4748734892214400  0.5309128622054390
  0.5269339269716260  0.2516422066070633  0.5317167382884351
  0.4735049129073579  0.7520542209217637  0.5301272880316898
  0.7504797735459707  0.9751700238392879  0.5309213342833425
  0.7506391584029909  0.5283484960239014  0.5309894395620899
 -0.0005066140758954  0.0035341233470081  0.5980747617481637
  0.0003839014931870  0.5000011943227113  0.5979529773104035
  0.5007167147189743  0.9988805973923865  0.5978832232847832
  0.4999568052507436  0.5055251081502374  0.5972839203326286
  0.0029721451536502  0.2562106152039650  0.9928351990253736
  0.0060028880736968  0.7562481487285548  0.9934259419788051
  0.2547250054414063  0.0076286265183632  0.9932583293803106
  0.2546913774565272  0.5045398521794103  0.9930546011680952
  0.5059703014688739  0.2563225462276873  0.9934756772905466
  0.5029513886484580  0.7561723742553658  0.9928754714527324
  0.7546174181251001  0.0045604479883428  0.9930348513342532
  0.7546541468876714  0.5076086361125376  0.9932989876658309
  0.5040102090197539  0.4557397481642732  0.7201454734325498
  0.4253525897617006  0.3497244699135774  0.7317259327264740
  0.6423468223038549  0.4420268948795829  0.7186430777690427
  0.4459881990248249  0.5793979123878589  0.7132564040247594
 
  0.00000000E+00  0.00000000E+00  0.00000000E+00
  0.00000000E+00  0.00000000E+00  0.00000000E+00
  0.00000000E+00  0.00000000E+00  0.00000000E+00
  0.00000000E+00  0.00000000E+00  0.00000000E+00
  0.00000000E+00  0.00000000E+00  0.00000000E+00
  0.00000000E+00  0.00000000E+00  0.00000000E+00
  0.00000000E+00  0.00000000E+00  0.00000000E+00
  0.00000000E+00  0.00000000E+00  0.00000000E+00
  0.00000000E+00  0.00000000E+00  0.00000000E+00
  0.00000000E+00  0.00000000E+00  0.00000000E+00
  0.00000000E+00  0.00000000E+00  0.00000000E+00
  0.00000000E+00  0.00000000E+00  0.00000000E+00
  0.00000000E+00  0.00000000E+00  0.00000000E+00
  0.00000000E+00  0.00000000E+00  0.00000000E+00
  0.00000000E+00  0.00000000E+00  0.00000000E+00
  0.00000000E+00  0.00000000E+00  0.00000000E+00
  0.00000000E+00  0.00000000E+00  0.00000000E+00
  0.00000000E+00  0.00000000E+00  0.00000000E+00
  0.00000000E+00  0.00000000E+00  0.00000000E+00
  0.00000000E+00  0.00000000E+00  0.00000000E+00
  0.00000000E+00  0.00000000E+00  0.00000000E+00
  0.00000000E+00  0.00000000E+00  0.00000000E+00
  0.00000000E+00  0.00000000E+00  0.00000000E+00
  0.00000000E+00  0.00000000E+00  0.00000000E+00
  0.00000000E+00  0.00000000E+00  0.00000000E+00
  0.00000000E+00  0.00000000E+00  0.00000000E+00
  0.00000000E+00  0.00000000E+00  0.00000000E+00
  0.00000000E+00  0.00000000E+00  0.00000000E+00
  0.00000000E+00  0.00000000E+00  0.00000000E+00
  0.00000000E+00  0.00000000E+00  0.00000000E+00
  0.00000000E+00  0.00000000E+00  0.00000000E+00
  0.00000000E+00  0.00000000E+00  0.00000000E+00
  0.00000000E+00  0.00000000E+00  0.00000000E+00
  0.00000000E+00  0.00000000E+00  0.00000000E+00
  0.00000000E+00  0.00000000E+00  0.00000000E+00
  0.00000000E+00  0.00000000E+00  0.00000000E+00
  0.00000000E+00  0.00000000E+00  0.00000000E+00
  0.00000000E+00  0.00000000E+00  0.00000000E+00
  0.00000000E+00  0.00000000E+00  0.00000000E+00
  0.00000000E+00  0.00000000E+00  0.00000000E+00
  0.00000000E+00  0.00000000E+00  0.00000000E+00
  0.00000000E+00  0.00000000E+00  0.00000000E+00
  0.00000000E+00  0.00000000E+00  0.00000000E+00
  0.00000000E+00  0.00000000E+00  0.00000000E+00
  0.00000000E+00  0.00000000E+00  0.00000000E+00
  0.00000000E+00  0.00000000E+00  0.00000000E+00
  0.00000000E+00  0.00000000E+00  0.00000000E+00
  0.00000000E+00  0.00000000E+00  0.00000000E+00
  0.00000000E+00  0.00000000E+00  0.00000000E+00
  0.00000000E+00  0.00000000E+00  0.00000000E+00
  0.00000000E+00  0.00000000E+00  0.00000000E+00
  0.00000000E+00  0.00000000E+00  0.00000000E+00
  0.00000000E+00  0.00000000E+00  0.00000000E+00
  0.00000000E+00  0.00000000E+00  0.00000000E+00
  0.00000000E+00  0.00000000E+00  0.00000000E+00
  0.00000000E+00  0.00000000E+00  0.00000000E+00
  0.00000000E+00  0.00000000E+00  0.00000000E+00
  0.00000000E+00  0.00000000E+00  0.00000000E+00
  0.00000000E+00  0.00000000E+00  0.00000000E+00
  0.00000000E+00  0.00000000E+00  0.00000000E+00
  0.00000000E+00  0.00000000E+00  0.00000000E+00
  0.00000000E+00  0.00000000E+00  0.00000000E+00
  0.00000000E+00  0.00000000E+00  0.00000000E+00
  0.00000000E+00  0.00000000E+00  0.00000000E+00
  0.00000000E+00  0.00000000E+00  0.00000000E+00
  0.00000000E+00  0.00000000E+00  0.00000000E+00
  0.00000000E+00  0.00000000E+00  0.00000000E+00
  0.00000000E+00  0.00000000E+00  0.00000000E+00
  0.00000000E+00  0.00000000E+00  0.00000000E+00
  0.00000000E+00  0.00000000E+00  0.00000000E+00
  0.00000000E+00  0.00000000E+00  0.00000000E+00
  0.00000000E+00  0.00000000E+00  0.00000000E+00
  0.00000000E+00  0.00000000E+00  0.00000000E+00
  0.00000000E+00  0.00000000E+00  0.00000000E+00
  0.00000000E+00  0.00000000E+00  0.00000000E+00
  0.00000000E+00  0.00000000E+00  0.00000000E+00
  0.00000000E+00  0.00000000E+00  0.00000000E+00
  0.00000000E+00  0.00000000E+00  0.00000000E+00
  0.00000000E+00  0.00000000E+00  0.00000000E+00
  0.00000000E+00  0.00000000E+00  0.00000000E+00
  0.00000000E+00  0.00000000E+00  0.00000000E+00
  0.00000000E+00  0.00000000E+00  0.00000000E+00
  0.00000000E+00  0.00000000E+00  0.00000000E+00
  0.00000000E+00  0.00000000E+00  0.00000000E+00
  0.00000000E+00  0.00000000E+00  0.00000000E+00
  0.00000000E+00  0.00000000E+00  0.00000000E+00
  0.00000000E+00  0.00000000E+00  0.00000000E+00
  0.00000000E+00  0.00000000E+00  0.00000000E+00
  0.00000000E+00  0.00000000E+00  0.00000000E+00
  0.00000000E+00  0.00000000E+00  0.00000000E+00
  0.00000000E+00  0.00000000E+00  0.00000000E+00
  0.00000000E+00  0.00000000E+00  0.00000000E+00
  0.00000000E+00  0.00000000E+00  0.00000000E+00
  0.00000000E+00  0.00000000E+00  0.00000000E+00
  0.00000000E+00  0.00000000E+00  0.00000000E+00
  0.00000000E+00  0.00000000E+00  0.00000000E+00
  0.00000000E+00  0.00000000E+00  0.00000000E+00
  0.00000000E+00  0.00000000E+00  0.00000000E+00
  0.00000000E+00  0.00000000E+00  0.00000000E+00
  0.00000000E+00  0.00000000E+00  0.00000000E+00
  0.00000000E+00  0.00000000E+00  0.00000000E+00
  0.00000000E+00  0.00000000E+00  0.00000000E+00
  0.00000000E+00  0.00000000E+00  0.00000000E+00
  0.00000000E+00  0.00000000E+00  0.00000000E+00
