VASP/POSCAR-Direct
1.0
	7.8105998039	0.0000000000	0.0000000000
	0.0000000000	7.8105998039	0.0000000000
	0.0000000000	0.0000000000	29.5737991333
   Sr   Ti    O    C    H
   20   20   60    1    3
Selective dynamics
Direct
    0.250000000          0.250000000          0.057760002    F  F  F
    0.250000000          0.749999985          0.057760002    F  F  F
    0.749999985          0.250000000          0.057760002    F  F  F
    0.749999985          0.749999985          0.057760002    F  F  F
    0.250000000          0.250000000          0.195980000    F  F  F
    0.250000000          0.749999985          0.195980000    F  F  F
    0.749999985          0.250000000          0.195980000    F  F  F
    0.749999985          0.749999985          0.195980000    F  F  F
    0.250279991          0.249970009          0.330630012    F  F  F
    0.250340018          0.750059997          0.330760001    F  F  F
    0.750370009          0.249900000          0.330689992    F  F  F
    0.750309997          0.750150046          0.330669999    F  F  F
    0.250809996          0.249909997          0.463840006    T  T  T
    0.250849999          0.750100046          0.463730011    T  T  T
    0.750859996          0.249980006          0.463869996    T  T  T
    0.750840033          0.750069948          0.463820013    T  T  T
    0.251069993          0.250409997          0.593420022    T  T  T
    0.251540002          0.749539973          0.593529985    T  T  T
    0.752250044          0.249479991          0.593679999    T  T  T
    0.751590032          0.750649984          0.593400028    T  T  T
    0.000000000          0.000000000          0.130850002    F  F  F
    0.000000000          0.500000000          0.130850002    F  F  F
    0.500000000          0.000000000          0.130850002    F  F  F
    0.500000000          0.500000000          0.130850002    F  F  F
    0.000000000          0.000000000          0.264470012    F  F  F
    0.000000000          0.500000000          0.264470012    F  F  F
    0.500000000          0.000000000          0.264470012    F  F  F
    0.500000000          0.500000000          0.264470012    F  F  F
    0.000480000          0.999939988          0.398770012    T  T  T
    0.000420000          0.499980006          0.398860014    T  T  T
    0.500549969          0.000000000          0.398860014    T  T  T
    0.500660012          0.499900000          0.398759983    T  T  T
    0.001180000          0.999989988          0.534749982    T  T  T
    0.001410000          0.500100030          0.534789968    T  T  T
    0.501219993          0.999900000          0.534889999    T  T  T
    0.501309980          0.499980006          0.534739985    T  T  T
    0.999470025          0.999789988          0.999479980    T  T  T
    0.999480037          0.499790019          0.999490042    T  T  T
    0.499469994          0.999789988          0.999490042    T  T  T
    0.499480007          0.499790019          0.999479980    T  T  T
    0.000000000          0.000000000          0.062109997    F  F  F
    0.000000000          0.500000000          0.062109997    F  F  F
    0.500000000          0.000000000          0.062109997    F  F  F
    0.500000000          0.500000000          0.062109997    F  F  F
    0.000000000          0.250000000          0.129769992    F  F  F
    0.000000000          0.749999985          0.129769992    F  F  F
    0.250000000          0.000000000          0.129769992    F  F  F
    0.250000000          0.500000000          0.129769992    F  F  F
    0.500000000          0.250000000          0.129769992    F  F  F
    0.500000000          0.749999985          0.129769992    F  F  F
    0.749999985          0.000000000          0.129769992    F  F  F
    0.749999985          0.500000000          0.129769992    F  F  F
    0.000000000          0.000000000          0.196619996    F  F  F
    0.000000000          0.500000000          0.196619996    F  F  F
    0.500000000          0.000000000          0.196619996    F  F  F
    0.500000000          0.500000000          0.196619996    F  F  F
    0.000000000          0.250000000          0.263900009    F  F  F
    0.000000000          0.749999985          0.263900009    F  F  F
    0.250000000          0.000000000          0.263900009    F  F  F
    0.250000000          0.500000000          0.263900009    F  F  F
    0.500000000          0.250000000          0.263900009    F  F  F
    0.500000000          0.749999985          0.263900009    F  F  F
    0.749999985          0.000000000          0.263900009    F  F  F
    0.749999985          0.500000000          0.263900009    F  F  F
    0.000000000          0.000150000          0.330869997    F  F  F
    0.000740000          0.499969994          0.330879993    F  F  F
    0.500739987          0.999779976          0.330879993    F  F  F
    0.500109982          0.500320024          0.330920012    F  F  F
    0.002110000          0.250109997          0.398090013    T  T  T
    0.999379976          0.750150046          0.398009976    T  T  T
    0.250609996          0.998669965          0.397939999    T  T  T
    0.250699999          0.501640017          0.398349991    T  T  T
    0.499350001          0.250169994          0.397949996    T  T  T
    0.502089986          0.750059997          0.398229999    T  T  T
    0.750689972          0.001480000          0.398160022    T  T  T
    0.750659996          0.498829977          0.397830004    T  T  T
    0.001260000          0.999880037          0.465140023    T  T  T
    0.999270025          0.500280036          0.465079978    T  T  T
    0.500540018          0.000840000          0.465100004    T  T  T
    0.502240016          0.499430007          0.465229993    T  T  T
    0.997150003          0.250120009          0.532969997    T  T  T
    0.004760000          0.750109997          0.533050002    T  T  T
    0.251049999          0.003850000          0.533159966    T  T  T
    0.251190002          0.496129979          0.532580031    T  T  T
    0.505089983          0.250099985          0.533339970    T  T  T
    0.497460015          0.749959997          0.532830011    T  T  T
    0.750980021          0.996079979          0.532899988    T  T  T
    0.751230020          0.503939984          0.533519974    T  T  T
    0.000190000          0.000330000          0.599719978    T  T  T
    0.003250000          0.500069963          0.599690052    T  T  T
    0.501519992          0.998929977          0.599810012    T  T  T
    0.498580007          0.501449999          0.599919975    T  T  T
    0.000330000          0.250150000          0.995569999    T  T  T
    0.000340000          0.750150046          0.995569999    T  T  T
    0.250369994          0.000130000          0.995569999    T  T  T
    0.250369994          0.500130006          0.995569999    T  T  T
    0.500339987          0.250150000          0.995569999    T  T  T
    0.500329975          0.750150046          0.995569999    T  T  T
    0.750370009          0.000130000          0.995569999    T  T  T
    0.750370009          0.500130006          0.995569999    T  T  T
    0.493589994          0.485040002          0.667569977    T  T  T
    0.404930002          0.378460001          0.664839988    T  T  T
    0.630580009          0.461369999          0.668660064    T  T  T
    0.445340007          0.615329962          0.669039937    T  T  T
