VASP/POSCAR-Sr-Ti-O
1.0
	7.8105998039	0.0000000000	0.0000000000
	0.0000000000	7.8105998039	0.0000000000
	0.0000000000	0.0000000000	29.5737991333
   Sr   Ti    O
   20   20   60
Cartesian
    1.952649951          1.952649951          1.708182697
    1.952649951          5.857949736          1.708182697
    5.857949736          1.952649951          1.708182697
    5.857949736          5.857949736          1.708182697
    1.952649951          1.952649951          5.795873154
    1.952649951          5.857949736          5.795873154
    5.857949736          1.952649951          5.795873154
    5.857949736          5.857949736          5.795873154
    1.954836849          1.952415703          9.777985562
    1.955305695          5.858418465          9.781829831
    5.860839845          1.951868891          9.779759399
    5.860371115          5.859121802          9.779168130
    1.958976506          1.951946974         13.717511167
    1.959288953          5.858731272         13.714258197
    5.864666938          1.952493786         13.718398086
    5.864511015          5.858496189         13.716919898
    1.961007238          1.955852273         17.549684532
    1.964678290          5.854356766         17.552936556
    5.875524046          1.948588369         17.557373040
    5.870368957          5.863026618         17.549093234
    0.000000000          0.000000000          3.869731676
    0.000000000          3.905299902          3.869731676
    3.905299902          0.000000000          3.869731676
    3.905299902          3.905299902          3.869731676
    0.000000000          0.000000000          7.821383012
    0.000000000          3.905299902          7.821383012
    3.905299902          0.000000000          7.821383012
    3.905299902          3.905299902          7.821383012
    0.003749088          7.810131074         11.793144235
    0.003280452          3.905143737         11.795805936
    3.909595490          0.000000000         11.795805936
    3.910454992          3.904518842         11.792847640
    0.009216508          7.810521604         15.814588554
    0.011012946          3.906081196         15.815771092
    3.914828779          7.809818744         15.818729389
    3.915531631          3.905143737         15.814292905
    7.806460381          7.808959484         29.558420166
    7.806538581          3.903659824         29.558717738
    3.901160237          7.808959484         29.558717738
    3.901238445          3.903659824         29.558420166
    0.000000000          0.000000000          1.836828575
    0.000000000          3.905299902          1.836828575
    3.905299902          0.000000000          1.836828575
    3.905299902          3.905299902          1.836828575
    0.000000000          1.952649951          3.837791677
    0.000000000          5.857949736          3.837791677
    1.952649951          0.000000000          3.837791677
    1.952649951          3.905299902          3.837791677
    3.905299902          1.952649951          3.837791677
    3.905299902          5.857949736          3.837791677
    5.857949736          0.000000000          3.837791677
    5.857949736          3.905299902          3.837791677
    0.000000000          0.000000000          5.814800267
    0.000000000          3.905299902          5.814800267
    3.905299902          0.000000000          5.814800267
    3.905299902          3.905299902          5.814800267
    0.000000000          1.952649951          7.804525857
    0.000000000          5.857949736          7.804525857
    1.952649951          0.000000000          7.804525857
    1.952649951          3.905299902          7.804525857
    3.905299902          1.952649951          7.804525857
    3.905299902          5.857949736          7.804525857
    5.857949736          0.000000000          7.804525857
    5.857949736          3.905299902          7.804525857
    0.000000000          0.001171590          9.785082831
    0.005779844          3.905065537          9.785378450
    3.911079644          7.808881284          9.785378450
    3.906158927          3.907799481          9.786561964
    0.016480366          1.953509094         11.773034081
    7.805757045          5.859121802         11.770667083
    1.957414386          7.800211433         11.768597598
    1.958117363          3.918109418         11.780722619
    3.900223020          1.953977706         11.768893247
    3.921623946          5.858418465         11.777173999
    5.863338948          0.011559688         11.775104514
    5.863104818          3.896161321         11.765344627
    0.009841356          7.809662821         13.755957609
    7.804898261          3.907487151         13.754181850
    3.909517766          0.006560904         13.754774095
    3.922795770          3.900847915         13.758618364
    7.788339618          1.953587293         15.761947635
    0.037178455          5.858808995         15.764313687
    1.960851073          0.030070809         15.767565740
    1.961944580          3.875072717         15.750414859
    3.945055722          1.953430894         15.772889143
    3.885461096          5.857637406         15.757807718
    5.865604405          7.779982089         15.759877203
    5.867557047          3.936073540         15.778212545
    0.001484014          0.002577498         17.735998166
    0.025384449          3.905846355         17.735113140
    3.917171951          7.802242282         17.738660813
    3.894208905          3.916625264         17.741912837
    0.002577498          1.953821541         29.442787174
    0.002655604          5.859121802         29.442787174
    1.955539826          0.001015378         29.442787174
    1.955539826          3.906315327         29.442787174
    3.907955404          1.953821541         29.442787174
    3.907877205          5.859121802         29.442787174
    5.860839845          0.001015378         29.442787174
    5.860839845          3.906315327         29.442787174
