VASP/POSCAR-C-H
1.0
	7.8105998039	0.0000000000	0.0000000000
	0.0000000000	7.8105998039	0.0000000000
	0.0000000000	0.0000000000	29.5737991333
    C    H
    1    3
Cartesian
    3.855233910          3.788453345         19.742580407
    3.162746194          2.955999610         19.661844261
    4.925208095          3.603576424         19.774818421
    3.478372571          4.806096081         19.786052709
